TCS_Benchmarks/redos_fix/snort3_output_distinct_764_763_1_0.smt2
(set-logic QF_S)
(declare-const x String)
(assert (str.in.re x (re.inter (re.* (re.comp (re.union (re.range "\u{09}" "\u{0d}") (re.range "\u{20}" "\u{20}") (re.range "\u{85}" "\u{85}") (re.range "\u{a0}" "\u{a0}"))) )  (re.++ (re.* (re.comp (re.union (re.range "\u{09}" "\u{0d}") (re.range "\u{20}" "\u{20}") (re.range "\u{85}" "\u{85}") (re.range "\u{a0}" "\u{a0}"))) ) (re.++  (re.union  (re.++  (str.to.re "\u{2f}") (re.++  (re.union  (str.to.re "\u{6e}")  (str.to.re "\u{4e}")) (re.++  (re.union  (str.to.re "\u{64}")  (str.to.re "\u{44}"))  (re.union  (str.to.re "\u{73}")  (str.to.re "\u{53}")))))  (re.++  (str.to.re "\u{2f}") (re.++  (re.union  (str.to.re "\u{64}")  (str.to.re "\u{44}")) (re.++  (re.union  (str.to.re "\u{68}")  (str.to.re "\u{48}")) (re.++  (re.union  (str.to.re "\u{6f}")  (str.to.re "\u{4f}")) (re.++  (re.union  (str.to.re "\u{73}")  (str.to.re "\u{53}"))  (re.union  (str.to.re "\u{74}")  (str.to.re "\u{54}")))))))) (re.* (re.comp  (str.to_re "\u{0A}")) ))) (re.* (re.comp  (str.to_re "\u{0A}")) ) )))
(check-sat)
(get-model)