TCS_Benchmarks/redos_fix/snort3_output_distinct_764_763_1_0.txt
[^\s]*
([^\s]*)((\/[nN][dD][sS]|\/[dD][hH][oO][sS][tT]))([^\n]*)
[^\n]*